NAME : berlin52-C-5-3-a.8001.tour
COMMENT : Length = 8001
COMMENT : Found by LKH-3 [Keld Helsgaun] Fri Jul 26 02:29:29 2024
TYPE : TOUR
DIMENSION : 52
TOUR_SECTION
1
22
31
21
42
7
2
30
23
20
50
16
29
47
26
28
27
13
14
52
11
51
12
25
46
44
34
35
36
39
40
37
38
48
24
5
6
15
4
43
33
10
9
8
41
19
45
3
17
18
32
49
-1
EOF
